33D32945 STP File, STP Format Version 1.0

SECTION Comment
Name    "Series B" 
Creator "A. M. Costa" 
Format  "Z.H. Fu and J. K. Hao"
Remark  "Sparse graph with random weights"
#TotalEdgeCost 491
#BudgetFraction 5
END 

SECTION Graph 
Nodes 75 
Edges 94 
Root 1
Budget 98
HopLimit 6
E 1 39 7 
E 1 50 9 
E 1 52 2 
E 1 71 6 
E 1 75 5 
E 2 17 9 
E 2 49 9 
E 3 64 2 
E 4 65 8 
E 5 13 8 
E 5 22 1 
E 5 51 5 
E 6 52 9 
E 7 14 10 
E 7 30 4 
E 7 55 9 
E 7 62 3 
E 7 66 2 
E 7 72 5 
E 8 33 1 
E 8 68 7 
E 9 15 10 
E 9 26 1 
E 9 45 5 
E 9 54 2 
E 10 28 10 
E 10 32 1 
E 10 73 1 
E 10 74 9 
E 11 33 7 
E 12 28 1 
E 12 31 10 
E 13 65 8 
E 14 24 5 
E 14 38 2 
E 14 65 6 
E 14 71 1 
E 14 73 1 
E 16 26 2 
E 16 37 4 
E 18 50 6 
E 18 67 10 
E 19 54 9 
E 19 71 2 
E 20 69 1 
E 20 73 3 
E 21 55 7 
E 23 45 7 
E 23 66 3 
E 24 35 10 
E 24 49 2 
E 25 32 6 
E 26 42 4 
E 27 41 6 
E 27 45 3 
E 28 47 5 
E 29 46 3 
E 29 50 5 
E 29 63 3 
E 29 74 3 
E 31 32 3 
E 31 42 4 
E 31 69 5 
E 32 70 9 
E 33 67 9 
E 34 37 7 
E 34 42 3 
E 34 68 8 
E 35 40 6 
E 36 51 2 
E 37 39 6 
E 37 62 4 
E 38 62 1 
E 40 48 4 
E 41 68 5 
E 42 57 10 
E 43 44 2 
E 44 51 3 
E 44 60 6 
E 45 46 8 
E 45 68 10 
E 48 59 4 
E 48 67 6 
E 53 57 9 
E 54 63 4 
E 54 65 4 
E 54 68 2 
E 55 58 4 
E 56 67 6 
E 58 73 5 
E 61 63 6 
E 61 69 7 
E 64 75 10 
E 67 73 4 
END 

SECTION ProfitableVertices 
ProfitableVertices 38 
PV 1 76
PV 4 83
PV 5 52
PV 7 50
PV 8 84
PV 9 41
PV 11 28
PV 13 38
PV 14 24
PV 20 81
PV 21 45
PV 28 30
PV 29 84
PV 30 85
PV 31 70
PV 33 67
PV 34 64
PV 36 63
PV 40 11
PV 41 43
PV 42 5
PV 45 61
PV 46 82
PV 49 84
PV 50 25
PV 53 10
PV 57 2
PV 59 5
PV 62 28
PV 64 3
PV 67 32
PV 68 54
PV 69 16
PV 70 18
PV 71 40
PV 72 89
PV 73 60
PV 74 28
END 

EOF 
